(declare-const a Real)
(declare-const b Real)
(declare-const c Real)
(assert (< 0 a))
(assert (< 0 b))
(assert (< 0 c))
(assert (= (+ (pow a 2) (pow b 2) (pow c 2)) 1))
(assert (not (<= (+ (* -3 a (pow b 2)) (* -3 a (pow c 2)) (* -3 b (pow a 2)) (* -3 b (pow c 2)) (* -3 c (pow a 2)) (* -1 (pow b 2) (pow (* c (pow 2 c)) (pow (+ 1 c) -1)) (+ 1 c)) (* 18 a b c)) 0)))
(check-sat)
(get-model)
(exit)